param n = 6;
param m = 4;


param f :=
1	1500000
2	1500000
3	1500000
4	1500000
;




param co :	1	2	3	4   :=
1  12.64	13.2	13.44	8.72
2  12.64	13.2	12.96	7.36
3  7.36	11.52	11.84	12.64
4  8.08	11.84	8.16	12.64
5  11.52	7.36	8.08	13.44
6  11.92	8.16	7.28	13.2
;


param p :=
1	20
2	20
3	20
4	20
; 


param h :=
1	50000
2	90000
3	120000
4	65000
5	120000
6	70000
;


param ca :=
1	1000000
2	1000000
3	1000000
4	1000000

;

